p edge 36 142
e 1 7
e 1 17
e 1 22
e 1 25
e 1 27
e 1 28
e 1 33
e 1 36
e 2 4
e 2 14
e 2 18
e 2 26
e 3 11
e 3 15
e 3 17
e 3 22
e 3 23
e 3 29
e 3 30
e 3 34
e 4 5
e 4 14
e 4 18
e 4 24
e 4 26
e 5 9
e 5 14
e 5 20
e 5 24
e 5 29
e 5 30
e 5 32
e 6 7
e 6 8
e 6 13
e 6 19
e 6 31
e 6 33
e 6 35
e 7 13
e 7 16
e 7 22
e 7 25
e 7 28
e 7 31
e 7 33
e 7 36
e 8 10
e 8 12
e 8 19
e 9 10
e 9 20
e 9 22
e 9 24
e 9 25
e 9 29
e 9 30
e 9 32
e 10 12
e 10 19
e 10 20
e 10 32
e 11 15
e 11 17
e 11 22
e 11 23
e 11 29
e 11 30
e 11 34
e 12 19
e 12 32
e 13 19
e 13 28
e 13 31
e 13 33
e 13 35
e 13 36
e 14 18
e 14 24
e 14 26
e 15 17
e 15 20
e 15 22
e 15 23
e 15 25
e 15 27
e 15 28
e 15 29
e 15 30
e 16 31
e 16 33
e 17 20
e 17 22
e 17 23
e 17 25
e 17 27
e 17 28
e 17 29
e 17 30
e 17 36
e 18 24
e 18 26
e 19 32
e 20 22
e 20 25
e 20 28
e 20 29
e 20 30
e 20 32
e 20 36
e 21 27
e 21 34
e 22 23
e 22 25
e 22 27
e 22 28
e 22 29
e 22 30
e 22 33
e 22 36
e 23 24
e 23 29
e 23 30
e 23 34
e 24 26
e 24 29
e 24 30
e 25 28
e 25 29
e 25 30
e 25 31
e 25 33
e 25 36
e 27 34
e 28 31
e 28 33
e 28 36
e 29 30
e 31 33
e 31 35
e 31 36
e 33 36
